31
25
0	2	5	10	3	1	0	0	0	0	6	10	8	3	0	9	3	10	7	5	8	0	8	7	0	8	3	0	3	0	4
0	2	5	6	4	2	9	9	4	8	7	10	1	1	1	5	2	5	5	9	10	1	5	4	10	5	9	10	2	10	3
1	3	2	3	4	
2	3	10	11	28	
3	3	9	15	16	
4	3	5	6	7	
5	1	8			
6	2	18	27		
7	2	14	18		
8	3	12	13	19	
9	1	10			
10	1	22			
11	1	25			
12	1	30			
13	1	20			
14	1	31			
15	2	21	24		
16	3	17	27	30	
17	1	18			
18	1	21			
19	1	29			
20	1	23			
21	1	26			
22	1	23			
23	1	26			
24	1	25			
25	3	26	27	30	
26	1	29			
27	1	31			
28	1	31			
29	0				
30	0				
31	0